p cnf 12 50 
12 -10 -8 0
-3 -1 10 0
5 1 6 0
10 -3 -12 0
12 9 -7 0
11 12 -7 0
5 -9 -12 0
-12 -9 3 0
-9 -6 11 0
-12 -1 11 0
-11 -7 -3 0
6 -8 -3 0
-1 -12 -9 0
1 -9 -10 0
-8 -7 11 0
-9 2 11 0
-5 4 6 0
-2 4 3 0
-8 3 -4 0
12 -2 -9 0
-2 -12 5 0
3 1 -9 0
-10 -3 -8 0
3 5 -7 0
12 4 8 0
6 8 1 0
-5 9 -8 0
7 -12 5 0
-10 -9 1 0
-8 -3 5 0
-7 11 8 0
-6 10 -7 0
-8 -6 -11 0
-3 10 1 0
11 6 -2 0
1 -7 -12 0
11 -10 7 0
4 -6 8 0
3 -5 -11 0
5 -8 12 0
-2 1 -11 0
-9 8 -2 0
-9 10 5 0
-4 11 -10 0
-6 9 -12 0
12 -6 7 0
-8 5 -6 0
5 11 4 0
-4 -11 3 0
4 6 2 0
